
******************************************************************************
This program contains Ipopt, a library for large-scale nonlinear optimization.
 Ipopt is released as open source code under the Eclipse Public License (EPL).
         For more information visit http://projects.coin-or.org/Ipopt
******************************************************************************

This is Ipopt version trunk, running with linear solver mumps.
NOTE: Other linear solvers might be more efficient (see Ipopt documentation).

Number of nonzeros in equality constraint Jacobian...:   196416
Number of nonzeros in inequality constraint Jacobian.:        0
Number of nonzeros in Lagrangian Hessian.............:        0

Total number of variables............................:      496
                     variables with only lower bounds:        0
                variables with lower and upper bounds:      496
                     variables with only upper bounds:        0
Total number of equality constraints.................:      396
Total number of inequality constraints...............:        0
        inequality constraints with only lower bounds:        0
   inequality constraints with lower and upper bounds:        0
        inequality constraints with only upper bounds:        0

iter    objective    inf_pr   inf_du lg(mu)  ||d||  lg(rg) alpha_du alpha_pr  ls
   0  1.0267280e+00 1.56e+03 2.84e-02   0.0 0.00e+00    -  0.00e+00 0.00e+00   0
   1  1.2992171e+00 4.10e-06 8.79e+00   1.1 8.80e+00    -  9.94e-01 1.00e+00h  1
   2  1.2957790e+00 2.08e-06 4.40e+00  -4.7 2.89e+00    -  9.87e-01 5.00e-01f  2
   3  1.2766951e+00 4.59e-08 3.28e-02  -2.5 7.64e-01    -  9.99e-01 1.00e+00f  1
   4  1.2329144e+00 7.18e-08 2.70e-02  -4.6 1.18e+00    -  9.97e-01 5.00e-01f  2
   5  1.2277454e+00 3.50e-08 5.85e-02  -6.3 1.04e+00    -  1.00e+00 1.00e+00f  1
   6  1.1965412e+00 7.41e-08 5.59e-02  -8.2 9.53e-01    -  1.00e+00 1.00e+00f  1
   7  1.1726630e+00 6.74e-08 4.91e-02 -10.0 2.83e+00    -  1.00e+00 1.25e-01f  4
   8  1.1317678e+00 6.99e-08 5.15e-02 -11.0 2.86e+00    -  1.00e+00 2.50e-01f  3
   9  1.1292085e+00 5.56e-08 4.96e-02 -11.0 1.55e+00    -  1.00e+00 5.00e-01f  2
iter    objective    inf_pr   inf_du lg(mu)  ||d||  lg(rg) alpha_du alpha_pr  ls
  10  1.1148010e+00 8.24e-08 5.41e-02 -11.0 1.40e+00    -  1.00e+00 5.00e-01f  2
  11  1.0888408e+00 9.42e-08 6.30e-02 -11.0 1.85e+00    -  1.00e+00 2.50e-01f  3
  12  1.0590554e+00 8.03e-08 6.48e-02 -11.0 3.59e+00    -  1.00e+00 1.25e-01f  4
  13  1.0490927e+00 9.09e-08 6.53e-02 -11.0 2.80e+00    -  1.00e+00 1.25e-01f  4
  14  1.0461299e+00 1.06e-07 6.26e-02 -11.0 3.50e+00    -  1.00e+00 6.25e-02f  5
  15  1.0446702e+00 1.25e-07 5.97e-02 -11.0 2.27e+00    -  1.00e+00 6.25e-02f  5
  16  1.0423129e+00 1.11e-07 5.42e-02 -11.0 2.19e+00    -  1.00e+00 6.25e-02f  5
  17  1.0366857e+00 1.16e-07 4.53e-02 -11.0 1.90e+00    -  1.00e+00 1.25e-01f  4
  18  1.6654238e+00 1.10e-07 5.30e-02 -11.0 1.49e+00    -  1.00e+00 1.00e+00w  1
  19  1.4483934e+00 1.49e-07 4.79e-02 -11.0 6.66e-01    -  1.00e+00 1.00e+00w  1
iter    objective    inf_pr   inf_du lg(mu)  ||d||  lg(rg) alpha_du alpha_pr  ls
  20  1.1908903e+00 2.39e-07 9.14e-02 -11.0 1.78e+00    -  1.00e+00 1.00e+00w  1
  21  1.0338463e+00 9.93e-08 3.53e-02 -11.0 6.60e-01    -  1.00e+00 1.25e-01f  3
  22  1.0337637e+00 9.76e-08 3.43e-02 -11.0 1.16e+00    -  1.00e+00 1.56e-02f  7
  23  9.3434855e-01 9.14e-08 1.76e-02 -11.0 4.55e+00    -  1.00e+00 2.50e-01f  3
  24  9.2793449e-01 6.33e-08 1.77e-02 -11.0 7.65e-01    -  1.00e+00 2.50e-01f  3
  25  9.1439559e-01 4.21e-08 2.70e-02 -11.0 1.11e+00    -  1.00e+00 5.00e-01f  2
  26  9.0501585e-01 3.54e-08 2.39e-02 -11.0 6.37e-01    -  1.00e+00 5.00e-01f  2
  27  8.8815526e-01 3.28e-08 2.51e-02 -11.0 6.58e-01    -  1.00e+00 5.00e-01f  2
  28  8.7210287e-01 3.40e-08 2.85e-02 -11.0 1.04e+00    -  1.00e+00 2.50e-01f  3
  29  8.4736721e-01 1.63e-07 2.50e-02 -11.0 9.58e-01    -  1.00e+00 5.00e-01f  2
iter    objective    inf_pr   inf_du lg(mu)  ||d||  lg(rg) alpha_du alpha_pr  ls
  30  8.4359311e-01 8.98e-08 2.85e-02 -11.0 8.41e-01    -  1.00e+00 2.50e-01f  3
  31  1.0273992e+00 1.33e-07 4.42e-02 -11.0 1.28e+00    -  1.00e+00 1.00e+00w  1
  32  1.1566777e+00 1.97e-07 4.62e-02 -11.0 5.59e-01    -  1.00e+00 1.00e+00w  1
  33  1.2972675e+00 2.64e-07 8.57e-02 -11.0 1.09e+00    -  1.00e+00 1.00e+00w  1
  34  8.3754208e-01 9.89e-08 2.96e-02 -11.0 1.11e+00    -  1.00e+00 2.50e-01f  2
  35  8.0515661e-01 7.20e-08 1.36e-02 -11.0 1.38e+00    -  1.00e+00 5.00e-01f  2
  36  8.0511282e-01 6.90e-08 1.32e-02 -11.0 3.68e-01    -  1.00e+00 3.12e-02f  6
  37  8.0380710e-01 6.10e-08 1.30e-02 -11.0 1.06e+00    -  1.00e+00 6.25e-02f  5
  38  8.0125912e-01 4.40e-08 7.83e-03 -11.0 4.93e-01    -  1.00e+00 2.50e-01f  3
  39  8.0124863e-01 3.72e-08 6.69e-03 -11.0 2.53e-01    -  1.00e+00 1.25e-01f  4
iter    objective    inf_pr   inf_du lg(mu)  ||d||  lg(rg) alpha_du alpha_pr  ls
  40  8.0103152e-01 3.03e-08 3.74e-03 -11.0 2.67e-01    -  1.00e+00 2.50e-01f  3
  41  8.0103165e-01 3.01e-08 3.70e-03 -11.0 1.08e-01    -  1.00e+00 7.81e-03h  8
  42  8.0035341e-01 2.27e-08 4.32e-03 -11.0 1.58e-01    -  1.00e+00 1.00e+00f  1
  43  7.9990444e-01 7.67e-09 5.32e-03 -11.0 7.10e-02    -  1.00e+00 5.00e-01f  2
  44  7.9744020e-01 1.66e-08 6.47e-03 -11.0 1.64e-01    -  1.00e+00 5.00e-01f  2
  45  7.9608868e-01 1.40e-08 4.25e-03 -11.0 6.44e-02    -  1.00e+00 1.00e+00f  1
  46  7.9593774e-01 9.60e-09 3.81e-03 -11.0 1.31e-01    -  1.00e+00 5.00e-01f  2
  47  7.9593779e-01 9.60e-09 3.81e-03 -11.0 1.28e-01    -  1.00e+00 2.44e-04h 13
  48  7.9459685e-01 3.93e-09 5.44e-03 -11.0 1.47e-01    -  1.00e+00 5.00e-01f  2
  49  7.9459866e-01 3.93e-09 5.44e-03 -11.0 6.49e-02    -  1.00e+00 1.95e-03h 10
iter    objective    inf_pr   inf_du lg(mu)  ||d||  lg(rg) alpha_du alpha_pr  ls
  50  7.9447303e-01 6.91e-09 5.89e-03 -11.0 2.94e-01    -  1.00e+00 1.25e-01f  4
  51  7.9447309e-01 6.91e-09 5.89e-03 -11.0 2.51e-01    -  1.00e+00 1.22e-04h 14
  52  7.9437521e-01 5.81e-09 5.42e-03 -11.0 2.77e-01    -  1.00e+00 1.25e-01f  4
  53  7.9436677e-01 6.26e-09 5.05e-03 -11.0 2.83e-01    -  1.00e+00 6.25e-02f  5
  54  7.9436677e-01 6.26e-09 5.05e-03 -11.0 2.37e-01    -  1.00e+00 2.44e-04h 13
  55  7.9426475e-01 5.10e-09 4.12e-03 -11.0 2.44e-01    -  1.00e+00 1.25e-01f  4
  56  8.0086714e-01 4.11e-08 4.66e-03 -11.0 2.53e-01    -  1.00e+00 1.00e+00w  1
  57  7.9921337e-01 1.52e-08 6.00e-03 -11.0 7.46e-02    -  1.00e+00 1.00e+00w  1
  58  7.9856835e-01 5.33e-08 1.15e-02 -11.0 2.02e-01    -  1.00e+00 1.00e+00w  1
  59  7.9417315e-01 8.43e-09 3.38e-03 -11.0 1.15e-01    -  1.00e+00 1.25e-01f  3
iter    objective    inf_pr   inf_du lg(mu)  ||d||  lg(rg) alpha_du alpha_pr  ls
  60  7.9417315e-01 8.43e-09 3.38e-03 -11.0 2.24e-01    -  1.00e+00 9.09e-13h 41
  61  7.9417340e-01 8.43e-09 3.38e-03 -11.0 9.48e-01    -  1.00e+00 3.05e-05h 16
  62  7.9395319e-01 1.91e-08 1.47e-03 -11.0 1.61e+01    -  1.00e+00 3.91e-03f  9
  63  7.9368038e-01 1.69e-08 1.43e-03 -11.0 1.91e-01    -  1.00e+00 2.50e-01f  3
  64  7.9363412e-01 1.42e-08 1.36e-03 -11.0 1.48e-01    -  1.00e+00 1.25e-01f  4
  65  7.9354019e-01 7.25e-09 1.71e-03 -11.0 9.76e-02    -  1.00e+00 5.00e-01f  2
  66  7.9353307e-01 6.81e-09 2.56e-03 -11.0 9.11e-02    -  1.00e+00 5.00e-01f  2
  67  7.9352286e-01 5.06e-09 2.39e-03 -11.0 1.21e-01    -  1.00e+00 1.25e-01f  4
  68  7.9345210e-01 7.15e-09 3.08e-03 -11.0 3.29e-01    -  1.00e+00 5.00e-01f  2
  69  8.0070556e-01 1.82e-08 6.18e-03 -11.0 3.08e-01    -  1.00e+00 1.00e+00w  1
iter    objective    inf_pr   inf_du lg(mu)  ||d||  lg(rg) alpha_du alpha_pr  ls
  70  8.0401170e-01 1.05e-08 7.92e-03 -11.0 2.38e-01    -  1.00e+00 1.00e+00w  1
  71  8.1768505e-01 3.39e-08 1.61e-02 -11.0 2.28e-01    -  1.00e+00 1.00e+00w  1
  72  7.9345846e-01 7.10e-09 3.08e-03 -11.0 5.66e-01    -  1.00e+00 1.95e-03h  9
  73  7.9258723e-01 1.99e-08 4.13e-03 -11.0 2.25e-01    -  1.00e+00 5.00e-01f  2
  74  7.9259122e-01 1.98e-08 4.10e-03 -11.0 5.56e-02    -  1.00e+00 7.81e-03h  8
  75  7.9259114e-01 1.97e-08 4.05e-03 -11.0 1.09e-01    -  1.00e+00 7.81e-03f  8
  76  7.9253224e-01 2.00e-08 3.20e-03 -11.0 1.08e-01    -  1.00e+00 1.25e-01f  4
  77  7.9236388e-01 7.06e-09 1.01e-03 -11.0 1.00e-01    -  1.00e+00 5.00e-01f  2
  78  7.9236021e-01 6.13e-09 7.48e-04 -11.0 3.82e-02    -  1.00e+00 1.25e-01h  4

Number of Iterations....: 78

                                   (scaled)                 (unscaled)
Objective...............:   7.9236020940089191e-01    7.9236020940089191e-01
Dual infeasibility......:   7.4823097234950474e-04    7.4823097234950474e-04
Constraint violation....:   5.3848019293691763e-09    6.1268110584933311e-09
Complementarity.........:   1.0000334993106502e-11    1.0000334993106502e-11
Overall NLP error.......:   7.4823097234950474e-04    7.4823097234950474e-04


Number of objective function evaluations             = 472
Number of objective gradient evaluations             = 79
Number of equality constraint evaluations            = 472
Number of inequality constraint evaluations          = 0
Number of equality constraint Jacobian evaluations   = 79
Number of inequality constraint Jacobian evaluations = 0
Number of Lagrangian Hessian evaluations             = 0
Total CPU secs in IPOPT (w/o function evaluations)   =     21.612
Total CPU secs in NLP function evaluations           =     10.514

EXIT: Optimal Solution Found.
